language Essence 1.3

letting class be function(1 --> 2, 2 --> 1, 3 --> 1)
letting deck_length be 21
letting deck_width be 82
letting length be function(1 --> 11, 2 --> 4, 3 --> 3)
letting n_classes be 2
letting n_containers be 3
letting separation be function()
letting width be function(1 --> 24, 2 --> 24, 3 --> 22)
